\ENCODING=ISO-8859-1
\Problem name: LP/crossvalidation_paper/er_n=100_m=484_p=0.10_SET2_setparam=100.00_alpha=0.75_2

Maximize
 obj1: 100 x0 + 100 x1 + 100 x2 + 100 x3 + 100 x4 + 100 x5 + 100 x6 + 100 x7
       + 100 x8 + 100 x9 + 100 x10 + 100 x11 + 100 x12 + 100 x13 + 100 x14
       + 100 x15 + 100 x16 + 100 x17 + 100 x18 + 100 x19 + 100 x20 + 100 x21
       + 100 x22 + 100 x23 + 100 x24 + 100 x25 + 100 x26 + 100 x27 + 100 x28
       + 100 x29 + 100 x30 + 100 x31 + 100 x32 + 100 x33 + 100 x34 + 100 x35
       + 100 x36 + 100 x37 + 100 x38 + 100 x39 + 100 x40 + 100 x41 + 100 x42
       + 100 x43 + 100 x44 + 100 x45 + 100 x46 + 100 x47 + 100 x48 + 100 x49
       + 100 x50 + 100 x51 + 100 x52 + 100 x53 + 100 x54 + 100 x55 + 100 x56
       + 100 x57 + 100 x58 + 100 x59 + 100 x60 + 100 x61 + 100 x62 + 100 x63
       + 100 x64 + 100 x65 + 100 x66 + 100 x67 + 100 x68 + 100 x69 + 100 x70
       + 100 x71 + 100 x72 + 100 x73 + 100 x74 + 100 x75 + 100 x76 + 100 x77
       + 100 x78 + 100 x79 + 100 x80 + 100 x81 + 100 x82 + 100 x83 + 100 x84
       + 100 x85 + 100 x86 + 100 x87 + 100 x88 + 100 x89 + 100 x90 + 100 x91
       + 100 x92 + 100 x93 + 100 x94 + 100 x95 + 100 x96 + 100 x97 + 100 x98
       + 100 x99 - y61_82 - y25_82 - y54_58 - y15_74 - y61_76 - y72_92 - y49_78
       - y43_63 - y47_93 - y16_84 - y59_97 - y10_75 - y4_35 - y36_67 - y34_79
       - y5_34 - y34_41 - y52_67 - y75_93 - y43_52 - y42_67 - y18_81 - y43_91
       - y23_50 - y81_97 - y73_92 - y41_43 - y5_53 - y16_51 - y54_64 - y18_57
       - y42_74 - y77_88 - y85_89 - y21_55 - y74_75 - y38_93 - y54_91 - y10_48
       - y65_81 - y56_96 - y13_25 - y56_70 - y33_68 - y20_61 - y68_87 - y1_51
       - y45_83 - y27_32 - y24_94 - y21_26 - y37_80 - y33_47 - y34_44 - y50_82
       - y20_85 - y44_58 - y42_70 - y55_72 - y47_95 - y13_18 - y7_92 - y71_72
       - y35_67 - y70_92 - y12_71 - y29_35 - y23_45 - y38_79 - y36_43 - y2_71
       - y63_93 - y3_65 - y8_20 - y65_69 - y28_79 - y2_16 - y35_98 - y41_91
       - y83_92 - y46_80 - y18_79 - y45_69 - y2_36 - y5_41 - y9_46 - y4_88
       - y1_74 - y25_31 - y20_65 - y44_70 - y42_82 - y69_90 - y21_75 - y70_78
       - y57_75 - y62_93 - y6_25 - y39_69 - y32_41 - y5_60 - y18_20 - y72_89
       - y12_34 - y51_73 - y41_52 - y14_24 - y33_96 - y55_77 - y22_66 - y60_86
       - y66_97 - y80_91 - y52_60 - y10_86 - y95_97 - y34_42 - y0_21 - y12_13
       - y57_85 - y36_97 - y32_39 - y29_33 - y10_32 - y51_87 - y63_95 - y53_85
       - y31_69 - y28_73 - y24_25 - y10_20 - y49_55 - y68_71 - y1_3 - y21_42
       - y30_31 - y11_76 - y25_74 - y39_78 - y31_36 - y29_84 - y40_52 - y38_48
       - y1_98 - y66_80 - y11_30 - y14_57 - y43_84 - y44_94 - y33_71 - y92_96
       - y3_26 - y25_41 - y28_50 - y14_69 - y3_32 - y12_77 - y28_40 - y30_50
       - y40_65 - y12_58 - y88_97 - y56_74 - y2_26 - y44_85 - y1_55 - y32_76
       - y27_36 - y86_92 - y33_35 - y73_84 - y4_72 - y34_40 - y37_55 - y44_54
       - y47_91 - y66_92 - y58_97 - y83_91 - y14_45 - y55_98 - y45_72 - y19_45
       - y35_71 - y59_93 - y23_51 - y45_98 - y2_41 - y32_57 - y5_44 - y30_60
       - y64_85 - y44_45 - y6_95 - y66_87 - y56_88 - y0_4 - y33_76 - y62_94
       - y8_57 - y50_64 - y8_31 - y7_57 - y31_76 - y3_80 - y17_78 - y30_88
       - y33_99 - y40_98 - y68_72 - y69_70 - y20_60 - y19_33 - y62_65 - y39_65
       - y28_42 - y40_61 - y54_93 - y74_95 - y48_60 - y12_18 - y33_94 - y46_72
       - y4_6 - y80_95 - y5_7 - y70_95 - y6_20 - y37_90 - y27_92 - y2_70
       - y30_74 - y13_50 - y19_99 - y20_83 - y67_88 - y50_57 - y90_96 - y18_78
       - y15_42 - y85_95 - y46_53 - y68_98 - y3_54 - y2_65 - y63_91 - y12_42
       - y43_44 - y40_87 - y14_58 - y1_7 - y57_98 - y15_51 - y71_85 - y0_82
       - y13_74 - y51_70 - y17_42 - y31_78 - y6_84 - y15_18 - y20_79 - y13_24
       - y32_83 - y68_80 - y57_77 - y31_41 - y40_63 - y63_87 - y30_65 - y19_92
       - y45_58 - y2_22 - y1_11 - y59_88 - y6_10 - y72_96 - y48_64 - y9_36
       - y25_66 - y10_35 - y13_86 - y28_82 - y67_90 - y43_92 - y70_84 - y59_81
       - y25_33 - y19_23 - y61_91 - y72_77 - y72_83 - y8_28 - y27_99 - y14_22
       - y21_96 - y53_99 - y16_91 - y8_72 - y58_94 - y56_66 - y84_86 - y61_84
       - y53_55 - y2_86 - y9_56 - y33_43 - y41_59 - y41_68 - y88_96 - y58_89
       - y32_85 - y25_85 - y8_36 - y31_43 - y55_62 - y17_33 - y31_49 - y35_50
       - y40_71 - y31_95 - y19_94 - y42_69 - y12_14 - y69_75 - y67_87 - y56_80
       - y7_89 - y68_89 - y21_70 - y36_72 - y0_88 - y51_86 - y15_68 - y18_33
       - y3_66 - y15_98 - y25_27 - y17_86 - y0_3 - y42_86 - y14_55 - y27_29
       - y19_51 - y84_99 - y74_99 - y40_47 - y10_40 - y17_19 - y9_53 - y17_53
       - y37_58 - y18_50 - y24_97 - y55_91 - y19_82 - y20_76 - y1_27 - y21_72
       - y13_27 - y14_32
Subject To
 c1:   x0 + x3 - y0_3 <= 1
 c2:   x0 + x4 - y0_4 <= 1
 c3:   x0 + x21 - y0_21 <= 1
 c4:   x0 + x22 <= 1
 c5:   x0 + x30 <= 1
 c6:   x0 + x82 - y0_82 <= 1
 c7:   x0 + x88 - y0_88 <= 1
 c8:   x1 + x3 - y1_3 <= 1
 c9:   x1 + x7 - y1_7 <= 1
 c10:  x1 + x9 <= 1
 c11:  x1 + x11 - y1_11 <= 1
 c12:  x1 + x18 <= 1
 c13:  x1 + x21 <= 1
 c14:  x1 + x27 - y1_27 <= 1
 c15:  x1 + x51 - y1_51 <= 1
 c16:  x1 + x54 <= 1
 c17:  x1 + x55 - y1_55 <= 1
 c18:  x1 + x57 <= 1
 c19:  x1 + x73 <= 1
 c20:  x1 + x74 - y1_74 <= 1
 c21:  x1 + x79 <= 1
 c22:  x1 + x94 <= 1
 c23:  x1 + x98 - y1_98 <= 1
 c24:  x2 + x10 <= 1
 c25:  x2 + x16 - y2_16 <= 1
 c26:  x2 + x22 - y2_22 <= 1
 c27:  x2 + x26 - y2_26 <= 1
 c28:  x2 + x36 - y2_36 <= 1
 c29:  x2 + x41 - y2_41 <= 1
 c30:  x2 + x65 - y2_65 <= 1
 c31:  x2 + x70 - y2_70 <= 1
 c32:  x2 + x71 - y2_71 <= 1
 c33:  x2 + x86 - y2_86 <= 1
 c34:  x2 + x99 <= 1
 c35:  x3 + x26 - y3_26 <= 1
 c36:  x3 + x32 - y3_32 <= 1
 c37:  x3 + x54 - y3_54 <= 1
 c38:  x3 + x55 <= 1
 c39:  x3 + x65 - y3_65 <= 1
 c40:  x3 + x66 - y3_66 <= 1
 c41:  x3 + x80 - y3_80 <= 1
 c42:  x3 + x93 <= 1
 c43:  x4 + x6 - y4_6 <= 1
 c44:  x4 + x24 <= 1
 c45:  x4 + x35 - y4_35 <= 1
 c46:  x4 + x72 - y4_72 <= 1
 c47:  x4 + x88 - y4_88 <= 1
 c48:  x5 + x7 - y5_7 <= 1
 c49:  x5 + x34 - y5_34 <= 1
 c50:  x5 + x41 - y5_41 <= 1
 c51:  x5 + x44 - y5_44 <= 1
 c52:  x5 + x50 <= 1
 c53:  x5 + x53 - y5_53 <= 1
 c54:  x5 + x60 - y5_60 <= 1
 c55:  x5 + x73 <= 1
 c56:  x6 + x10 - y6_10 <= 1
 c57:  x6 + x20 - y6_20 <= 1
 c58:  x6 + x25 - y6_25 <= 1
 c59:  x6 + x84 - y6_84 <= 1
 c60:  x6 + x95 - y6_95 <= 1
 c61:  x7 + x9 <= 1
 c62:  x7 + x28 <= 1
 c63:  x7 + x42 <= 1
 c64:  x7 + x45 <= 1
 c65:  x7 + x57 - y7_57 <= 1
 c66:  x7 + x68 <= 1
 c67:  x7 + x89 - y7_89 <= 1
 c68:  x7 + x92 - y7_92 <= 1
 c69:  x7 + x97 <= 1
 c70:  x8 + x13 <= 1
 c71:  x8 + x20 - y8_20 <= 1
 c72:  x8 + x28 - y8_28 <= 1
 c73:  x8 + x31 - y8_31 <= 1
 c74:  x8 + x36 - y8_36 <= 1
 c75:  x8 + x57 - y8_57 <= 1
 c76:  x8 + x72 - y8_72 <= 1
 c77:  x9 + x36 - y9_36 <= 1
 c78:  x9 + x46 - y9_46 <= 1
 c79:  x9 + x51 <= 1
 c80:  x9 + x52 <= 1
 c81:  x9 + x53 - y9_53 <= 1
 c82:  x9 + x56 - y9_56 <= 1
 c83:  x10 + x13 <= 1
 c84:  x10 + x14 <= 1
 c85:  x10 + x20 - y10_20 <= 1
 c86:  x10 + x32 - y10_32 <= 1
 c87:  x10 + x35 - y10_35 <= 1
 c88:  x10 + x40 - y10_40 <= 1
 c89:  x10 + x48 - y10_48 <= 1
 c90:  x10 + x60 <= 1
 c91:  x10 + x74 <= 1
 c92:  x10 + x75 - y10_75 <= 1
 c93:  x10 + x86 - y10_86 <= 1
 c94:  x10 + x99 <= 1
 c95:  x11 + x17 <= 1
 c96:  x11 + x30 - y11_30 <= 1
 c97:  x11 + x39 <= 1
 c98:  x11 + x71 <= 1
 c99:  x11 + x76 - y11_76 <= 1
 c100: x12 + x13 - y12_13 <= 1
 c101: x12 + x14 - y12_14 <= 1
 c102: x12 + x18 - y12_18 <= 1
 c103: x12 + x34 - y12_34 <= 1
 c104: x12 + x42 - y12_42 <= 1
 c105: x12 + x58 - y12_58 <= 1
 c106: x12 + x62 <= 1
 c107: x12 + x71 - y12_71 <= 1
 c108: x12 + x77 - y12_77 <= 1
 c109: x12 + x93 <= 1
 c110: x13 + x18 - y13_18 <= 1
 c111: x13 + x24 - y13_24 <= 1
 c112: x13 + x25 - y13_25 <= 1
 c113: x13 + x27 - y13_27 <= 1
 c114: x13 + x41 <= 1
 c115: x13 + x50 - y13_50 <= 1
 c116: x13 + x66 <= 1
 c117: x13 + x74 - y13_74 <= 1
 c118: x13 + x76 <= 1
 c119: x13 + x86 - y13_86 <= 1
 c120: x14 + x22 - y14_22 <= 1
 c121: x14 + x24 - y14_24 <= 1
 c122: x14 + x32 - y14_32 <= 1
 c123: x14 + x45 - y14_45 <= 1
 c124: x14 + x55 - y14_55 <= 1
 c125: x14 + x57 - y14_57 <= 1
 c126: x14 + x58 - y14_58 <= 1
 c127: x14 + x69 - y14_69 <= 1
 c128: x15 + x18 - y15_18 <= 1
 c129: x15 + x42 - y15_42 <= 1
 c130: x15 + x51 - y15_51 <= 1
 c131: x15 + x57 <= 1
 c132: x15 + x68 - y15_68 <= 1
 c133: x15 + x74 - y15_74 <= 1
 c134: x15 + x93 <= 1
 c135: x15 + x98 - y15_98 <= 1
 c136: x16 + x20 <= 1
 c137: x16 + x38 <= 1
 c138: x16 + x51 - y16_51 <= 1
 c139: x16 + x56 <= 1
 c140: x16 + x84 - y16_84 <= 1
 c141: x16 + x91 - y16_91 <= 1
 c142: x16 + x98 <= 1
 c143: x17 + x19 - y17_19 <= 1
 c144: x17 + x33 - y17_33 <= 1
 c145: x17 + x34 <= 1
 c146: x17 + x42 - y17_42 <= 1
 c147: x17 + x53 - y17_53 <= 1
 c148: x17 + x77 <= 1
 c149: x17 + x78 - y17_78 <= 1
 c150: x17 + x86 - y17_86 <= 1
 c151: x18 + x20 - y18_20 <= 1
 c152: x18 + x33 - y18_33 <= 1
 c153: x18 + x50 - y18_50 <= 1
 c154: x18 + x57 - y18_57 <= 1
 c155: x18 + x71 <= 1
 c156: x18 + x78 - y18_78 <= 1
 c157: x18 + x79 - y18_79 <= 1
 c158: x18 + x81 - y18_81 <= 1
 c159: x19 + x23 - y19_23 <= 1
 c160: x19 + x33 - y19_33 <= 1
 c161: x19 + x45 - y19_45 <= 1
 c162: x19 + x51 - y19_51 <= 1
 c163: x19 + x75 <= 1
 c164: x19 + x82 - y19_82 <= 1
 c165: x19 + x92 - y19_92 <= 1
 c166: x19 + x94 - y19_94 <= 1
 c167: x19 + x99 - y19_99 <= 1
 c168: x20 + x32 <= 1
 c169: x20 + x60 - y20_60 <= 1
 c170: x20 + x61 - y20_61 <= 1
 c171: x20 + x65 - y20_65 <= 1
 c172: x20 + x76 - y20_76 <= 1
 c173: x20 + x79 - y20_79 <= 1
 c174: x20 + x83 - y20_83 <= 1
 c175: x20 + x85 - y20_85 <= 1
 c176: x20 + x99 <= 1
 c177: x21 + x26 - y21_26 <= 1
 c178: x21 + x42 - y21_42 <= 1
 c179: x21 + x55 - y21_55 <= 1
 c180: x21 + x70 - y21_70 <= 1
 c181: x21 + x72 - y21_72 <= 1
 c182: x21 + x75 - y21_75 <= 1
 c183: x21 + x96 - y21_96 <= 1
 c184: x22 + x33 <= 1
 c185: x22 + x66 - y22_66 <= 1
 c186: x22 + x98 <= 1
 c187: x23 + x45 - y23_45 <= 1
 c188: x23 + x50 - y23_50 <= 1
 c189: x23 + x51 - y23_51 <= 1
 c190: x23 + x71 <= 1
 c191: x23 + x95 <= 1
 c192: x24 + x25 - y24_25 <= 1
 c193: x24 + x72 <= 1
 c194: x24 + x94 - y24_94 <= 1
 c195: x24 + x97 - y24_97 <= 1
 c196: x25 + x27 - y25_27 <= 1
 c197: x25 + x28 <= 1
 c198: x25 + x31 - y25_31 <= 1
 c199: x25 + x33 - y25_33 <= 1
 c200: x25 + x41 - y25_41 <= 1
 c201: x25 + x60 <= 1
 c202: x25 + x66 - y25_66 <= 1
 c203: x25 + x68 <= 1
 c204: x25 + x74 - y25_74 <= 1
 c205: x25 + x82 - y25_82 <= 1
 c206: x25 + x85 - y25_85 <= 1
 c207: x26 + x42 <= 1
 c208: x26 + x46 <= 1
 c209: x26 + x69 <= 1
 c210: x27 + x29 - y27_29 <= 1
 c211: x27 + x32 - y27_32 <= 1
 c212: x27 + x36 - y27_36 <= 1
 c213: x27 + x54 <= 1
 c214: x27 + x92 - y27_92 <= 1
 c215: x27 + x99 - y27_99 <= 1
 c216: x28 + x40 - y28_40 <= 1
 c217: x28 + x42 - y28_42 <= 1
 c218: x28 + x50 - y28_50 <= 1
 c219: x28 + x73 - y28_73 <= 1
 c220: x28 + x79 - y28_79 <= 1
 c221: x28 + x82 - y28_82 <= 1
 c222: x29 + x33 - y29_33 <= 1
 c223: x29 + x35 - y29_35 <= 1
 c224: x29 + x84 - y29_84 <= 1
 c225: x30 + x31 - y30_31 <= 1
 c226: x30 + x37 <= 1
 c227: x30 + x50 - y30_50 <= 1
 c228: x30 + x60 - y30_60 <= 1
 c229: x30 + x65 - y30_65 <= 1
 c230: x30 + x74 - y30_74 <= 1
 c231: x30 + x88 - y30_88 <= 1
 c232: x31 + x36 - y31_36 <= 1
 c233: x31 + x41 - y31_41 <= 1
 c234: x31 + x43 - y31_43 <= 1
 c235: x31 + x49 - y31_49 <= 1
 c236: x31 + x69 - y31_69 <= 1
 c237: x31 + x76 - y31_76 <= 1
 c238: x31 + x78 - y31_78 <= 1
 c239: x31 + x82 <= 1
 c240: x31 + x95 - y31_95 <= 1
 c241: x32 + x39 - y32_39 <= 1
 c242: x32 + x41 - y32_41 <= 1
 c243: x32 + x51 <= 1
 c244: x32 + x57 - y32_57 <= 1
 c245: x32 + x76 - y32_76 <= 1
 c246: x32 + x83 - y32_83 <= 1
 c247: x32 + x85 - y32_85 <= 1
 c248: x33 + x35 - y33_35 <= 1
 c249: x33 + x43 - y33_43 <= 1
 c250: x33 + x47 - y33_47 <= 1
 c251: x33 + x68 - y33_68 <= 1
 c252: x33 + x71 - y33_71 <= 1
 c253: x33 + x76 - y33_76 <= 1
 c254: x33 + x94 - y33_94 <= 1
 c255: x33 + x96 - y33_96 <= 1
 c256: x33 + x99 - y33_99 <= 1
 c257: x34 + x40 - y34_40 <= 1
 c258: x34 + x41 - y34_41 <= 1
 c259: x34 + x42 - y34_42 <= 1
 c260: x34 + x44 - y34_44 <= 1
 c261: x34 + x52 <= 1
 c262: x34 + x64 <= 1
 c263: x34 + x71 <= 1
 c264: x34 + x78 <= 1
 c265: x34 + x79 - y34_79 <= 1
 c266: x35 + x39 <= 1
 c267: x35 + x50 - y35_50 <= 1
 c268: x35 + x59 <= 1
 c269: x35 + x67 - y35_67 <= 1
 c270: x35 + x71 - y35_71 <= 1
 c271: x35 + x77 <= 1
 c272: x35 + x98 - y35_98 <= 1
 c273: x36 + x43 - y36_43 <= 1
 c274: x36 + x67 - y36_67 <= 1
 c275: x36 + x72 - y36_72 <= 1
 c276: x36 + x77 <= 1
 c277: x36 + x83 <= 1
 c278: x36 + x97 - y36_97 <= 1
 c279: x37 + x55 - y37_55 <= 1
 c280: x37 + x58 - y37_58 <= 1
 c281: x37 + x80 - y37_80 <= 1
 c282: x37 + x90 - y37_90 <= 1
 c283: x38 + x48 - y38_48 <= 1
 c284: x38 + x74 <= 1
 c285: x38 + x79 - y38_79 <= 1
 c286: x38 + x92 <= 1
 c287: x38 + x93 - y38_93 <= 1
 c288: x39 + x46 <= 1
 c289: x39 + x65 - y39_65 <= 1
 c290: x39 + x69 - y39_69 <= 1
 c291: x39 + x78 - y39_78 <= 1
 c292: x40 + x42 <= 1
 c293: x40 + x47 - y40_47 <= 1
 c294: x40 + x52 - y40_52 <= 1
 c295: x40 + x61 - y40_61 <= 1
 c296: x40 + x63 - y40_63 <= 1
 c297: x40 + x65 - y40_65 <= 1
 c298: x40 + x71 - y40_71 <= 1
 c299: x40 + x87 - y40_87 <= 1
 c300: x40 + x98 - y40_98 <= 1
 c301: x41 + x43 - y41_43 <= 1
 c302: x41 + x52 - y41_52 <= 1
 c303: x41 + x59 - y41_59 <= 1
 c304: x41 + x68 - y41_68 <= 1
 c305: x41 + x82 <= 1
 c306: x41 + x91 - y41_91 <= 1
 c307: x42 + x57 <= 1
 c308: x42 + x67 - y42_67 <= 1
 c309: x42 + x69 - y42_69 <= 1
 c310: x42 + x70 - y42_70 <= 1
 c311: x42 + x72 <= 1
 c312: x42 + x74 - y42_74 <= 1
 c313: x42 + x75 <= 1
 c314: x42 + x80 <= 1
 c315: x42 + x82 - y42_82 <= 1
 c316: x42 + x86 - y42_86 <= 1
 c317: x42 + x95 <= 1
 c318: x43 + x44 - y43_44 <= 1
 c319: x43 + x52 - y43_52 <= 1
 c320: x43 + x63 - y43_63 <= 1
 c321: x43 + x84 - y43_84 <= 1
 c322: x43 + x91 - y43_91 <= 1
 c323: x43 + x92 - y43_92 <= 1
 c324: x44 + x45 - y44_45 <= 1
 c325: x44 + x54 - y44_54 <= 1
 c326: x44 + x57 <= 1
 c327: x44 + x58 - y44_58 <= 1
 c328: x44 + x70 - y44_70 <= 1
 c329: x44 + x82 <= 1
 c330: x44 + x85 - y44_85 <= 1
 c331: x44 + x90 <= 1
 c332: x44 + x94 - y44_94 <= 1
 c333: x45 + x58 - y45_58 <= 1
 c334: x45 + x69 - y45_69 <= 1
 c335: x45 + x72 - y45_72 <= 1
 c336: x45 + x83 - y45_83 <= 1
 c337: x45 + x98 - y45_98 <= 1
 c338: x46 + x53 - y46_53 <= 1
 c339: x46 + x72 - y46_72 <= 1
 c340: x46 + x80 - y46_80 <= 1
 c341: x46 + x85 <= 1
 c342: x46 + x89 <= 1
 c343: x47 + x91 - y47_91 <= 1
 c344: x47 + x92 <= 1
 c345: x47 + x93 - y47_93 <= 1
 c346: x47 + x95 - y47_95 <= 1
 c347: x48 + x60 - y48_60 <= 1
 c348: x48 + x64 - y48_64 <= 1
 c349: x48 + x68 <= 1
 c350: x48 + x90 <= 1
 c351: x49 + x55 - y49_55 <= 1
 c352: x49 + x60 <= 1
 c353: x49 + x78 - y49_78 <= 1
 c354: x49 + x89 <= 1
 c355: x50 + x57 - y50_57 <= 1
 c356: x50 + x64 - y50_64 <= 1
 c357: x50 + x70 <= 1
 c358: x50 + x72 <= 1
 c359: x50 + x77 <= 1
 c360: x50 + x82 - y50_82 <= 1
 c361: x51 + x70 - y51_70 <= 1
 c362: x51 + x72 <= 1
 c363: x51 + x73 - y51_73 <= 1
 c364: x51 + x86 - y51_86 <= 1
 c365: x51 + x87 - y51_87 <= 1
 c366: x51 + x97 <= 1
 c367: x52 + x60 - y52_60 <= 1
 c368: x52 + x67 - y52_67 <= 1
 c369: x53 + x55 - y53_55 <= 1
 c370: x53 + x85 - y53_85 <= 1
 c371: x53 + x99 - y53_99 <= 1
 c372: x54 + x58 - y54_58 <= 1
 c373: x54 + x63 <= 1
 c374: x54 + x64 - y54_64 <= 1
 c375: x54 + x91 - y54_91 <= 1
 c376: x54 + x93 - y54_93 <= 1
 c377: x55 + x62 - y55_62 <= 1
 c378: x55 + x72 - y55_72 <= 1
 c379: x55 + x77 - y55_77 <= 1
 c380: x55 + x91 - y55_91 <= 1
 c381: x55 + x98 - y55_98 <= 1
 c382: x56 + x66 - y56_66 <= 1
 c383: x56 + x70 - y56_70 <= 1
 c384: x56 + x74 - y56_74 <= 1
 c385: x56 + x78 <= 1
 c386: x56 + x80 - y56_80 <= 1
 c387: x56 + x88 - y56_88 <= 1
 c388: x56 + x96 - y56_96 <= 1
 c389: x57 + x70 <= 1
 c390: x57 + x75 - y57_75 <= 1
 c391: x57 + x77 - y57_77 <= 1
 c392: x57 + x85 - y57_85 <= 1
 c393: x57 + x87 <= 1
 c394: x57 + x98 - y57_98 <= 1
 c395: x58 + x89 - y58_89 <= 1
 c396: x58 + x94 - y58_94 <= 1
 c397: x58 + x97 - y58_97 <= 1
 c398: x59 + x73 <= 1
 c399: x59 + x81 - y59_81 <= 1
 c400: x59 + x88 - y59_88 <= 1
 c401: x59 + x93 - y59_93 <= 1
 c402: x59 + x97 - y59_97 <= 1
 c403: x60 + x86 - y60_86 <= 1
 c404: x61 + x62 <= 1
 c405: x61 + x63 <= 1
 c406: x61 + x76 - y61_76 <= 1
 c407: x61 + x82 - y61_82 <= 1
 c408: x61 + x84 - y61_84 <= 1
 c409: x61 + x91 - y61_91 <= 1
 c410: x62 + x65 - y62_65 <= 1
 c411: x62 + x66 <= 1
 c412: x62 + x93 - y62_93 <= 1
 c413: x62 + x94 - y62_94 <= 1
 c414: x63 + x87 - y63_87 <= 1
 c415: x63 + x90 <= 1
 c416: x63 + x91 - y63_91 <= 1
 c417: x63 + x93 - y63_93 <= 1
 c418: x63 + x95 - y63_95 <= 1
 c419: x64 + x75 <= 1
 c420: x64 + x85 - y64_85 <= 1
 c421: x64 + x97 <= 1
 c422: x65 + x67 <= 1
 c423: x65 + x69 - y65_69 <= 1
 c424: x65 + x81 - y65_81 <= 1
 c425: x66 + x80 - y66_80 <= 1
 c426: x66 + x87 - y66_87 <= 1
 c427: x66 + x92 - y66_92 <= 1
 c428: x66 + x97 - y66_97 <= 1
 c429: x67 + x80 <= 1
 c430: x67 + x87 - y67_87 <= 1
 c431: x67 + x88 - y67_88 <= 1
 c432: x67 + x90 - y67_90 <= 1
 c433: x68 + x71 - y68_71 <= 1
 c434: x68 + x72 - y68_72 <= 1
 c435: x68 + x80 - y68_80 <= 1
 c436: x68 + x87 - y68_87 <= 1
 c437: x68 + x89 - y68_89 <= 1
 c438: x68 + x98 - y68_98 <= 1
 c439: x69 + x70 - y69_70 <= 1
 c440: x69 + x75 - y69_75 <= 1
 c441: x69 + x78 <= 1
 c442: x69 + x90 - y69_90 <= 1
 c443: x70 + x78 - y70_78 <= 1
 c444: x70 + x84 - y70_84 <= 1
 c445: x70 + x92 - y70_92 <= 1
 c446: x70 + x95 - y70_95 <= 1
 c447: x71 + x72 - y71_72 <= 1
 c448: x71 + x85 - y71_85 <= 1
 c449: x71 + x94 <= 1
 c450: x72 + x77 - y72_77 <= 1
 c451: x72 + x83 - y72_83 <= 1
 c452: x72 + x85 <= 1
 c453: x72 + x89 - y72_89 <= 1
 c454: x72 + x92 - y72_92 <= 1
 c455: x72 + x93 <= 1
 c456: x72 + x96 - y72_96 <= 1
 c457: x73 + x84 - y73_84 <= 1
 c458: x73 + x92 - y73_92 <= 1
 c459: x73 + x96 <= 1
 c460: x74 + x75 - y74_75 <= 1
 c461: x74 + x95 - y74_95 <= 1
 c462: x74 + x99 - y74_99 <= 1
 c463: x75 + x93 - y75_93 <= 1
 c464: x77 + x79 <= 1
 c465: x77 + x88 - y77_88 <= 1
 c466: x80 + x91 - y80_91 <= 1
 c467: x80 + x95 - y80_95 <= 1
 c468: x81 + x85 <= 1
 c469: x81 + x97 - y81_97 <= 1
 c470: x83 + x91 - y83_91 <= 1
 c471: x83 + x92 - y83_92 <= 1
 c472: x83 + x95 <= 1
 c473: x83 + x99 <= 1
 c474: x84 + x86 - y84_86 <= 1
 c475: x84 + x99 - y84_99 <= 1
 c476: x85 + x89 - y85_89 <= 1
 c477: x85 + x95 - y85_95 <= 1
 c478: x86 + x92 - y86_92 <= 1
 c479: x88 + x96 - y88_96 <= 1
 c480: x88 + x97 - y88_97 <= 1
 c481: x90 + x96 - y90_96 <= 1
 c482: x91 + x95 <= 1
 c483: x92 + x96 - y92_96 <= 1
 c484: x95 + x97 - y95_97 <= 1
Bounds
 0 <= x0 <= 1
 0 <= x1 <= 1
 0 <= x2 <= 1
 0 <= x3 <= 1
 0 <= x4 <= 1
 0 <= x5 <= 1
 0 <= x6 <= 1
 0 <= x7 <= 1
 0 <= x8 <= 1
 0 <= x9 <= 1
 0 <= x10 <= 1
 0 <= x11 <= 1
 0 <= x12 <= 1
 0 <= x13 <= 1
 0 <= x14 <= 1
 0 <= x15 <= 1
 0 <= x16 <= 1
 0 <= x17 <= 1
 0 <= x18 <= 1
 0 <= x19 <= 1
 0 <= x20 <= 1
 0 <= x21 <= 1
 0 <= x22 <= 1
 0 <= x23 <= 1
 0 <= x24 <= 1
 0 <= x25 <= 1
 0 <= x26 <= 1
 0 <= x27 <= 1
 0 <= x28 <= 1
 0 <= x29 <= 1
 0 <= x30 <= 1
 0 <= x31 <= 1
 0 <= x32 <= 1
 0 <= x33 <= 1
 0 <= x34 <= 1
 0 <= x35 <= 1
 0 <= x36 <= 1
 0 <= x37 <= 1
 0 <= x38 <= 1
 0 <= x39 <= 1
 0 <= x40 <= 1
 0 <= x41 <= 1
 0 <= x42 <= 1
 0 <= x43 <= 1
 0 <= x44 <= 1
 0 <= x45 <= 1
 0 <= x46 <= 1
 0 <= x47 <= 1
 0 <= x48 <= 1
 0 <= x49 <= 1
 0 <= x50 <= 1
 0 <= x51 <= 1
 0 <= x52 <= 1
 0 <= x53 <= 1
 0 <= x54 <= 1
 0 <= x55 <= 1
 0 <= x56 <= 1
 0 <= x57 <= 1
 0 <= x58 <= 1
 0 <= x59 <= 1
 0 <= x60 <= 1
 0 <= x61 <= 1
 0 <= x62 <= 1
 0 <= x63 <= 1
 0 <= x64 <= 1
 0 <= x65 <= 1
 0 <= x66 <= 1
 0 <= x67 <= 1
 0 <= x68 <= 1
 0 <= x69 <= 1
 0 <= x70 <= 1
 0 <= x71 <= 1
 0 <= x72 <= 1
 0 <= x73 <= 1
 0 <= x74 <= 1
 0 <= x75 <= 1
 0 <= x76 <= 1
 0 <= x77 <= 1
 0 <= x78 <= 1
 0 <= x79 <= 1
 0 <= x80 <= 1
 0 <= x81 <= 1
 0 <= x82 <= 1
 0 <= x83 <= 1
 0 <= x84 <= 1
 0 <= x85 <= 1
 0 <= x86 <= 1
 0 <= x87 <= 1
 0 <= x88 <= 1
 0 <= x89 <= 1
 0 <= x90 <= 1
 0 <= x91 <= 1
 0 <= x92 <= 1
 0 <= x93 <= 1
 0 <= x94 <= 1
 0 <= x95 <= 1
 0 <= x96 <= 1
 0 <= x97 <= 1
 0 <= x98 <= 1
 0 <= x99 <= 1
 0 <= y61_82 <= 1
 0 <= y25_82 <= 1
 0 <= y54_58 <= 1
 0 <= y15_74 <= 1
 0 <= y61_76 <= 1
 0 <= y72_92 <= 1
 0 <= y49_78 <= 1
 0 <= y43_63 <= 1
 0 <= y47_93 <= 1
 0 <= y16_84 <= 1
 0 <= y59_97 <= 1
 0 <= y10_75 <= 1
 0 <= y4_35 <= 1
 0 <= y36_67 <= 1
 0 <= y34_79 <= 1
 0 <= y5_34 <= 1
 0 <= y34_41 <= 1
 0 <= y52_67 <= 1
 0 <= y75_93 <= 1
 0 <= y43_52 <= 1
 0 <= y42_67 <= 1
 0 <= y18_81 <= 1
 0 <= y43_91 <= 1
 0 <= y23_50 <= 1
 0 <= y81_97 <= 1
 0 <= y73_92 <= 1
 0 <= y41_43 <= 1
 0 <= y5_53 <= 1
 0 <= y16_51 <= 1
 0 <= y54_64 <= 1
 0 <= y18_57 <= 1
 0 <= y42_74 <= 1
 0 <= y77_88 <= 1
 0 <= y85_89 <= 1
 0 <= y21_55 <= 1
 0 <= y74_75 <= 1
 0 <= y38_93 <= 1
 0 <= y54_91 <= 1
 0 <= y10_48 <= 1
 0 <= y65_81 <= 1
 0 <= y56_96 <= 1
 0 <= y13_25 <= 1
 0 <= y56_70 <= 1
 0 <= y33_68 <= 1
 0 <= y20_61 <= 1
 0 <= y68_87 <= 1
 0 <= y1_51 <= 1
 0 <= y45_83 <= 1
 0 <= y27_32 <= 1
 0 <= y24_94 <= 1
 0 <= y21_26 <= 1
 0 <= y37_80 <= 1
 0 <= y33_47 <= 1
 0 <= y34_44 <= 1
 0 <= y50_82 <= 1
 0 <= y20_85 <= 1
 0 <= y44_58 <= 1
 0 <= y42_70 <= 1
 0 <= y55_72 <= 1
 0 <= y47_95 <= 1
 0 <= y13_18 <= 1
 0 <= y7_92 <= 1
 0 <= y71_72 <= 1
 0 <= y35_67 <= 1
 0 <= y70_92 <= 1
 0 <= y12_71 <= 1
 0 <= y29_35 <= 1
 0 <= y23_45 <= 1
 0 <= y38_79 <= 1
 0 <= y36_43 <= 1
 0 <= y2_71 <= 1
 0 <= y63_93 <= 1
 0 <= y3_65 <= 1
 0 <= y8_20 <= 1
 0 <= y65_69 <= 1
 0 <= y28_79 <= 1
 0 <= y2_16 <= 1
 0 <= y35_98 <= 1
 0 <= y41_91 <= 1
 0 <= y83_92 <= 1
 0 <= y46_80 <= 1
 0 <= y18_79 <= 1
 0 <= y45_69 <= 1
 0 <= y2_36 <= 1
 0 <= y5_41 <= 1
 0 <= y9_46 <= 1
 0 <= y4_88 <= 1
 0 <= y1_74 <= 1
 0 <= y25_31 <= 1
 0 <= y20_65 <= 1
 0 <= y44_70 <= 1
 0 <= y42_82 <= 1
 0 <= y69_90 <= 1
 0 <= y21_75 <= 1
 0 <= y70_78 <= 1
 0 <= y57_75 <= 1
 0 <= y62_93 <= 1
 0 <= y6_25 <= 1
 0 <= y39_69 <= 1
 0 <= y32_41 <= 1
 0 <= y5_60 <= 1
 0 <= y18_20 <= 1
 0 <= y72_89 <= 1
 0 <= y12_34 <= 1
 0 <= y51_73 <= 1
 0 <= y41_52 <= 1
 0 <= y14_24 <= 1
 0 <= y33_96 <= 1
 0 <= y55_77 <= 1
 0 <= y22_66 <= 1
 0 <= y60_86 <= 1
 0 <= y66_97 <= 1
 0 <= y80_91 <= 1
 0 <= y52_60 <= 1
 0 <= y10_86 <= 1
 0 <= y95_97 <= 1
 0 <= y34_42 <= 1
 0 <= y0_21 <= 1
 0 <= y12_13 <= 1
 0 <= y57_85 <= 1
 0 <= y36_97 <= 1
 0 <= y32_39 <= 1
 0 <= y29_33 <= 1
 0 <= y10_32 <= 1
 0 <= y51_87 <= 1
 0 <= y63_95 <= 1
 0 <= y53_85 <= 1
 0 <= y31_69 <= 1
 0 <= y28_73 <= 1
 0 <= y24_25 <= 1
 0 <= y10_20 <= 1
 0 <= y49_55 <= 1
 0 <= y68_71 <= 1
 0 <= y1_3 <= 1
 0 <= y21_42 <= 1
 0 <= y30_31 <= 1
 0 <= y11_76 <= 1
 0 <= y25_74 <= 1
 0 <= y39_78 <= 1
 0 <= y31_36 <= 1
 0 <= y29_84 <= 1
 0 <= y40_52 <= 1
 0 <= y38_48 <= 1
 0 <= y1_98 <= 1
 0 <= y66_80 <= 1
 0 <= y11_30 <= 1
 0 <= y14_57 <= 1
 0 <= y43_84 <= 1
 0 <= y44_94 <= 1
 0 <= y33_71 <= 1
 0 <= y92_96 <= 1
 0 <= y3_26 <= 1
 0 <= y25_41 <= 1
 0 <= y28_50 <= 1
 0 <= y14_69 <= 1
 0 <= y3_32 <= 1
 0 <= y12_77 <= 1
 0 <= y28_40 <= 1
 0 <= y30_50 <= 1
 0 <= y40_65 <= 1
 0 <= y12_58 <= 1
 0 <= y88_97 <= 1
 0 <= y56_74 <= 1
 0 <= y2_26 <= 1
 0 <= y44_85 <= 1
 0 <= y1_55 <= 1
 0 <= y32_76 <= 1
 0 <= y27_36 <= 1
 0 <= y86_92 <= 1
 0 <= y33_35 <= 1
 0 <= y73_84 <= 1
 0 <= y4_72 <= 1
 0 <= y34_40 <= 1
 0 <= y37_55 <= 1
 0 <= y44_54 <= 1
 0 <= y47_91 <= 1
 0 <= y66_92 <= 1
 0 <= y58_97 <= 1
 0 <= y83_91 <= 1
 0 <= y14_45 <= 1
 0 <= y55_98 <= 1
 0 <= y45_72 <= 1
 0 <= y19_45 <= 1
 0 <= y35_71 <= 1
 0 <= y59_93 <= 1
 0 <= y23_51 <= 1
 0 <= y45_98 <= 1
 0 <= y2_41 <= 1
 0 <= y32_57 <= 1
 0 <= y5_44 <= 1
 0 <= y30_60 <= 1
 0 <= y64_85 <= 1
 0 <= y44_45 <= 1
 0 <= y6_95 <= 1
 0 <= y66_87 <= 1
 0 <= y56_88 <= 1
 0 <= y0_4 <= 1
 0 <= y33_76 <= 1
 0 <= y62_94 <= 1
 0 <= y8_57 <= 1
 0 <= y50_64 <= 1
 0 <= y8_31 <= 1
 0 <= y7_57 <= 1
 0 <= y31_76 <= 1
 0 <= y3_80 <= 1
 0 <= y17_78 <= 1
 0 <= y30_88 <= 1
 0 <= y33_99 <= 1
 0 <= y40_98 <= 1
 0 <= y68_72 <= 1
 0 <= y69_70 <= 1
 0 <= y20_60 <= 1
 0 <= y19_33 <= 1
 0 <= y62_65 <= 1
 0 <= y39_65 <= 1
 0 <= y28_42 <= 1
 0 <= y40_61 <= 1
 0 <= y54_93 <= 1
 0 <= y74_95 <= 1
 0 <= y48_60 <= 1
 0 <= y12_18 <= 1
 0 <= y33_94 <= 1
 0 <= y46_72 <= 1
 0 <= y4_6 <= 1
 0 <= y80_95 <= 1
 0 <= y5_7 <= 1
 0 <= y70_95 <= 1
 0 <= y6_20 <= 1
 0 <= y37_90 <= 1
 0 <= y27_92 <= 1
 0 <= y2_70 <= 1
 0 <= y30_74 <= 1
 0 <= y13_50 <= 1
 0 <= y19_99 <= 1
 0 <= y20_83 <= 1
 0 <= y67_88 <= 1
 0 <= y50_57 <= 1
 0 <= y90_96 <= 1
 0 <= y18_78 <= 1
 0 <= y15_42 <= 1
 0 <= y85_95 <= 1
 0 <= y46_53 <= 1
 0 <= y68_98 <= 1
 0 <= y3_54 <= 1
 0 <= y2_65 <= 1
 0 <= y63_91 <= 1
 0 <= y12_42 <= 1
 0 <= y43_44 <= 1
 0 <= y40_87 <= 1
 0 <= y14_58 <= 1
 0 <= y1_7 <= 1
 0 <= y57_98 <= 1
 0 <= y15_51 <= 1
 0 <= y71_85 <= 1
 0 <= y0_82 <= 1
 0 <= y13_74 <= 1
 0 <= y51_70 <= 1
 0 <= y17_42 <= 1
 0 <= y31_78 <= 1
 0 <= y6_84 <= 1
 0 <= y15_18 <= 1
 0 <= y20_79 <= 1
 0 <= y13_24 <= 1
 0 <= y32_83 <= 1
 0 <= y68_80 <= 1
 0 <= y57_77 <= 1
 0 <= y31_41 <= 1
 0 <= y40_63 <= 1
 0 <= y63_87 <= 1
 0 <= y30_65 <= 1
 0 <= y19_92 <= 1
 0 <= y45_58 <= 1
 0 <= y2_22 <= 1
 0 <= y1_11 <= 1
 0 <= y59_88 <= 1
 0 <= y6_10 <= 1
 0 <= y72_96 <= 1
 0 <= y48_64 <= 1
 0 <= y9_36 <= 1
 0 <= y25_66 <= 1
 0 <= y10_35 <= 1
 0 <= y13_86 <= 1
 0 <= y28_82 <= 1
 0 <= y67_90 <= 1
 0 <= y43_92 <= 1
 0 <= y70_84 <= 1
 0 <= y59_81 <= 1
 0 <= y25_33 <= 1
 0 <= y19_23 <= 1
 0 <= y61_91 <= 1
 0 <= y72_77 <= 1
 0 <= y72_83 <= 1
 0 <= y8_28 <= 1
 0 <= y27_99 <= 1
 0 <= y14_22 <= 1
 0 <= y21_96 <= 1
 0 <= y53_99 <= 1
 0 <= y16_91 <= 1
 0 <= y8_72 <= 1
 0 <= y58_94 <= 1
 0 <= y56_66 <= 1
 0 <= y84_86 <= 1
 0 <= y61_84 <= 1
 0 <= y53_55 <= 1
 0 <= y2_86 <= 1
 0 <= y9_56 <= 1
 0 <= y33_43 <= 1
 0 <= y41_59 <= 1
 0 <= y41_68 <= 1
 0 <= y88_96 <= 1
 0 <= y58_89 <= 1
 0 <= y32_85 <= 1
 0 <= y25_85 <= 1
 0 <= y8_36 <= 1
 0 <= y31_43 <= 1
 0 <= y55_62 <= 1
 0 <= y17_33 <= 1
 0 <= y31_49 <= 1
 0 <= y35_50 <= 1
 0 <= y40_71 <= 1
 0 <= y31_95 <= 1
 0 <= y19_94 <= 1
 0 <= y42_69 <= 1
 0 <= y12_14 <= 1
 0 <= y69_75 <= 1
 0 <= y67_87 <= 1
 0 <= y56_80 <= 1
 0 <= y7_89 <= 1
 0 <= y68_89 <= 1
 0 <= y21_70 <= 1
 0 <= y36_72 <= 1
 0 <= y0_88 <= 1
 0 <= y51_86 <= 1
 0 <= y15_68 <= 1
 0 <= y18_33 <= 1
 0 <= y3_66 <= 1
 0 <= y15_98 <= 1
 0 <= y25_27 <= 1
 0 <= y17_86 <= 1
 0 <= y0_3 <= 1
 0 <= y42_86 <= 1
 0 <= y14_55 <= 1
 0 <= y27_29 <= 1
 0 <= y19_51 <= 1
 0 <= y84_99 <= 1
 0 <= y74_99 <= 1
 0 <= y40_47 <= 1
 0 <= y10_40 <= 1
 0 <= y17_19 <= 1
 0 <= y9_53 <= 1
 0 <= y17_53 <= 1
 0 <= y37_58 <= 1
 0 <= y18_50 <= 1
 0 <= y24_97 <= 1
 0 <= y55_91 <= 1
 0 <= y19_82 <= 1
 0 <= y20_76 <= 1
 0 <= y1_27 <= 1
 0 <= y21_72 <= 1
 0 <= y13_27 <= 1
 0 <= y14_32 <= 1
Binaries
 x0  x1  x2  x3  x4  x5  x6  x7  x8  x9  x10  x11  x12  x13  x14  x15  x16 
 x17  x18  x19  x20  x21  x22  x23  x24  x25  x26  x27  x28  x29  x30  x31 
 x32  x33  x34  x35  x36  x37  x38  x39  x40  x41  x42  x43  x44  x45  x46 
 x47  x48  x49  x50  x51  x52  x53  x54  x55  x56  x57  x58  x59  x60  x61 
 x62  x63  x64  x65  x66  x67  x68  x69  x70  x71  x72  x73  x74  x75  x76 
 x77  x78  x79  x80  x81  x82  x83  x84  x85  x86  x87  x88  x89  x90  x91 
 x92  x93  x94  x95  x96  x97  x98  x99  y61_82  y25_82  y54_58  y15_74 
 y61_76  y72_92  y49_78  y43_63  y47_93  y16_84  y59_97  y10_75  y4_35  y36_67 
 y34_79  y5_34  y34_41  y52_67  y75_93  y43_52  y42_67  y18_81  y43_91  y23_50 
 y81_97  y73_92  y41_43  y5_53  y16_51  y54_64  y18_57  y42_74  y77_88  y85_89 
 y21_55  y74_75  y38_93  y54_91  y10_48  y65_81  y56_96  y13_25  y56_70 
 y33_68  y20_61  y68_87  y1_51  y45_83  y27_32  y24_94  y21_26  y37_80  y33_47 
 y34_44  y50_82  y20_85  y44_58  y42_70  y55_72  y47_95  y13_18  y7_92  y71_72 
 y35_67  y70_92  y12_71  y29_35  y23_45  y38_79  y36_43  y2_71  y63_93  y3_65 
 y8_20  y65_69  y28_79  y2_16  y35_98  y41_91  y83_92  y46_80  y18_79  y45_69 
 y2_36  y5_41  y9_46  y4_88  y1_74  y25_31  y20_65  y44_70  y42_82  y69_90 
 y21_75  y70_78  y57_75  y62_93  y6_25  y39_69  y32_41  y5_60  y18_20  y72_89 
 y12_34  y51_73  y41_52  y14_24  y33_96  y55_77  y22_66  y60_86  y66_97 
 y80_91  y52_60  y10_86  y95_97  y34_42  y0_21  y12_13  y57_85  y36_97  y32_39 
 y29_33  y10_32  y51_87  y63_95  y53_85  y31_69  y28_73  y24_25  y10_20 
 y49_55  y68_71  y1_3  y21_42  y30_31  y11_76  y25_74  y39_78  y31_36  y29_84 
 y40_52  y38_48  y1_98  y66_80  y11_30  y14_57  y43_84  y44_94  y33_71  y92_96 
 y3_26  y25_41  y28_50  y14_69  y3_32  y12_77  y28_40  y30_50  y40_65  y12_58 
 y88_97  y56_74  y2_26  y44_85  y1_55  y32_76  y27_36  y86_92  y33_35  y73_84 
 y4_72  y34_40  y37_55  y44_54  y47_91  y66_92  y58_97  y83_91  y14_45  y55_98 
 y45_72  y19_45  y35_71  y59_93  y23_51  y45_98  y2_41  y32_57  y5_44  y30_60 
 y64_85  y44_45  y6_95  y66_87  y56_88  y0_4  y33_76  y62_94  y8_57  y50_64 
 y8_31  y7_57  y31_76  y3_80  y17_78  y30_88  y33_99  y40_98  y68_72  y69_70 
 y20_60  y19_33  y62_65  y39_65  y28_42  y40_61  y54_93  y74_95  y48_60 
 y12_18  y33_94  y46_72  y4_6  y80_95  y5_7  y70_95  y6_20  y37_90  y27_92 
 y2_70  y30_74  y13_50  y19_99  y20_83  y67_88  y50_57  y90_96  y18_78  y15_42 
 y85_95  y46_53  y68_98  y3_54  y2_65  y63_91  y12_42  y43_44  y40_87  y14_58 
 y1_7  y57_98  y15_51  y71_85  y0_82  y13_74  y51_70  y17_42  y31_78  y6_84 
 y15_18  y20_79  y13_24  y32_83  y68_80  y57_77  y31_41  y40_63  y63_87 
 y30_65  y19_92  y45_58  y2_22  y1_11  y59_88  y6_10  y72_96  y48_64  y9_36 
 y25_66  y10_35  y13_86  y28_82  y67_90  y43_92  y70_84  y59_81  y25_33 
 y19_23  y61_91  y72_77  y72_83  y8_28  y27_99  y14_22  y21_96  y53_99  y16_91 
 y8_72  y58_94  y56_66  y84_86  y61_84  y53_55  y2_86  y9_56  y33_43  y41_59 
 y41_68  y88_96  y58_89  y32_85  y25_85  y8_36  y31_43  y55_62  y17_33  y31_49 
 y35_50  y40_71  y31_95  y19_94  y42_69  y12_14  y69_75  y67_87  y56_80  y7_89 
 y68_89  y21_70  y36_72  y0_88  y51_86  y15_68  y18_33  y3_66  y15_98  y25_27 
 y17_86  y0_3  y42_86  y14_55  y27_29  y19_51  y84_99  y74_99  y40_47  y10_40 
 y17_19  y9_53  y17_53  y37_58  y18_50  y24_97  y55_91  y19_82  y20_76  y1_27 
 y21_72  y13_27  y14_32 
End
